data;


param d:= 100;
param r:=5;
param p:=0.900000;
param M:=1000;
param U:=
         1         1       -9.276519e-01
         2         1        5.949680e-01
         3         1        1.313597e+00
         4         1        9.926429e-01
         5         1        5.542964e-01
         6         1        4.374459e-01
         7         1       -4.943469e-01
         8         1        7.304291e-01
         9         1        1.382320e+00
        10         1       -1.420881e+00
        11         1       -1.084152e+00
        12         1       -1.259964e+00
        13         1        6.759675e-01
        14         1        7.965092e-01
        15         1       -3.673669e-01
        16         1       -7.254751e-01
        17         1       -3.487073e-01
        18         1       -8.199237e-02
        19         1        1.590432e+00
        20         1        8.505912e-02
        21         1       -7.381761e-01
        22         1       -1.973320e+00
        23         1       -6.307431e-01
        24         1        9.136028e-01
        25         1       -6.526160e-02
        26         1        8.476100e-01
        27         1       -7.456588e-01
        28         1        5.991026e-01
        29         1        1.582936e+00
        30         1        1.486557e+00
        31         1        6.430179e-01
        32         1       -3.365682e-01
        33         1       -1.913128e-01
        34         1        3.860273e-01
        35         1       -1.014865e+00
        36         1        5.575263e-03
        37         1       -1.440771e+00
        38         1       -1.039594e+00
        39         1        8.459481e-01
        40         1       -2.008050e-02
        41         1       -1.603812e-02
        42         1       -2.119637e-01
        43         1       -9.041359e-01
        44         1        2.204363e-01
        45         1       -6.802388e-01
        46         1       -9.273594e-01
        47         1       -1.186011e-01
        48         1        1.432618e+00
        49         1       -1.976850e-01
        50         1       -6.135692e-01
        51         1        9.130304e-01
        52         1       -2.030382e+00
        53         1        3.173991e-01
        54         1       -1.171895e+00
        55         1       -7.365240e-01
        56         1       -1.822387e+00
        57         1        6.544388e-01
        58         1        1.114283e+00
        59         1       -1.218680e+00
        60         1       -1.394436e+00
        61         1       -1.088984e-01
        62         1       -4.571665e-01
        63         1        6.317676e-01
        64         1       -4.835767e-01
        65         1        5.785854e-02
        66         1       -6.774355e-02
        67         1        1.542859e+00
        68         1       -5.678196e-01
        69         1       -1.962306e-01
        70         1       -2.458127e-01
        71         1        8.072364e-01
        72         1        8.739212e-01
        73         1       -5.085100e-02
        74         1        1.164798e+00
        75         1        6.123599e-01
        76         1       -1.289490e+00
        77         1        2.929489e-01
        78         1        1.041692e+00
        79         1        2.231403e+00
        80         1       -1.434337e+00
        81         1        8.307229e-01
        82         1        1.874164e+00
        83         1        8.946723e-01
        84         1       -2.757187e-01
        85         1        7.974261e-01
        86         1        1.765678e+00
        87         1       -5.409068e-01
        88         1        1.872345e-01
        89         1       -1.555483e+00
        90         1       -7.854715e-01
        91         1        2.006363e-01
        92         1       -9.306940e-01
        93         1        6.210122e-01
        94         1        1.173883e+00
        95         1        9.300883e-01
        96         1       -1.786158e+00
        97         1       -1.339968e+00
        98         1       -1.551972e+00
        99         1        2.323564e+00
       100         1       -1.077704e+00
         1         2        1.765400e-01
         2         2        4.370383e-01
         3         2        1.548914e+00
         4         2       -1.210937e+00
         5         2       -7.360822e-01
         6         2        1.561535e+00
         7         2       -8.853492e-02
         8         2       -3.745459e-01
         9         2       -7.656999e-01
        10         2       -2.036447e-01
        11         2       -3.902401e-01
        12         2        1.728471e+00
        13         2       -1.221610e+00
        14         2        1.609654e+00
        15         2       -8.471493e-01
        16         2       -2.347728e-02
        17         2       -1.563121e+00
        18         2        1.178779e+00
        19         2       -9.468923e-01
        20         2       -9.190303e-01
        21         2        9.830948e-01
        22         2       -3.670508e-01
        23         2        1.890293e-01
        24         2       -7.477704e-02
        25         2        1.951696e+00
        26         2       -2.426046e-01
        27         2       -9.167307e-01
        28         2        4.263549e-01
        29         2       -9.399794e-01
        30         2        9.401725e-01
        31         2       -7.509962e-01
        32         2       -8.751562e-01
        33         2        6.052893e-01
        34         2        2.116278e+00
        35         2       -7.495550e-02
        36         2        2.033002e+00
        37         2       -1.205817e+00
        38         2        5.210612e-01
        39         2       -6.845891e-01
        40         2        1.066597e-02
        41         2       -7.492115e-01
        42         2        1.866232e-01
        43         2       -1.136681e+00
        44         2       -9.871047e-01
        45         2        2.094940e-01
        46         2        3.912843e-01
        47         2        9.843060e-01
        48         2       -1.227102e+00
        49         2        9.339173e-01
        50         2       -9.684912e-01
        51         2       -1.351384e+00
        52         2       -8.520745e-01
        53         2       -7.578178e-01
        54         2        2.206266e+00
        55         2        5.747993e-01
        56         2        1.067043e+00
        57         2        1.195727e-01
        58         2        5.258813e-01
        59         2       -9.181651e-01
        60         2        2.156188e-01
        61         2       -1.461935e+00
        62         2       -6.206517e-01
        63         2        2.239347e-01
        64         2       -3.951121e-01
        65         2       -4.410478e-01
        66         2        4.718488e-01
        67         2       -8.579777e-01
        68         2       -1.524922e-01
        69         2       -1.758913e+00
        70         2       -8.335984e-01
        71         2        2.247326e-03
        72         2       -6.954931e-01
        73         2        2.794994e-01
        74         2        1.816305e-01
        75         2       -1.131408e+00
        76         2        2.180968e+00
        77         2        1.715863e+00
        78         2       -4.667739e-01
        79         2       -1.101820e+00
        80         2        4.099913e-01
        81         2       -8.628081e-01
        82         2       -5.959277e-01
        83         2        8.601903e-01
        84         2        1.776316e-01
        85         2        4.747576e-01
        86         2        1.834029e-01
        87         2        5.138575e-01
        88         2       -2.076216e+00
        89         2       -8.231194e-01
        90         2        1.288717e+00
        91         2        1.882721e+00
        92         2        2.563039e+00
        93         2        5.064370e-01
        94         2       -1.406139e+00
        95         2        1.930827e+00
        96         2       -5.228464e-01
        97         2       -1.073923e+00
        98         2       -5.454476e-01
        99         2       -3.883221e-02
       100         2       -1.801339e+00
         1         3       -2.257388e-01
         2         3        1.640636e+00
         3         3       -1.581458e+00
         4         3       -8.140171e-01
         5         3       -2.301189e-01
         6         3        1.065253e+00
         7         3        7.246902e-01
         8         3        1.616971e+00
         9         3        4.882570e-01
        10         3       -5.312569e-01
        11         3       -1.225614e+00
        12         3        1.055483e+00
        13         3        2.824128e-01
        14         3        1.671512e+00
        15         3        3.990571e-01
        16         3       -4.939225e-01
        17         3        2.271265e-01
        18         3        9.269171e-01
        19         3        2.727316e+00
        20         3       -2.108482e+00
        21         3        7.025251e-01
        22         3       -7.557816e-01
        23         3       -3.937874e-01
        24         3        6.050206e-01
        25         3        1.588418e+00
        26         3        3.783378e-01
        27         3        1.495686e+00
        28         3        1.313770e+00
        29         3        1.451900e+00
        30         3       -1.189556e+00
        31         3        4.572720e-01
        32         3        1.069122e+00
        33         3       -7.610356e-01
        34         3        3.430507e-01
        35         3       -4.126657e-01
        36         3        2.380264e-01
        37         3       -6.445411e-01
        38         3        1.148532e+00
        39         3        2.638906e-02
        40         3        6.190861e-01
        41         3        5.565396e-01
        42         3        1.786930e+00
        43         3        8.187606e-01
        44         3       -8.688482e-01
        45         3       -2.867019e-02
        46         3        1.151927e-01
        47         3       -2.052882e+00
        48         3        1.481856e+00
        49         3       -8.714542e-01
        50         3       -3.078110e-01
        51         3        2.442529e+00
        52         3        5.750949e-01
        53         3       -6.475534e-01
        54         3       -1.170974e-01
        55         3       -8.429399e-01
        56         3       -4.263597e-01
        57         3        8.764325e-01
        58         3       -3.895095e-02
        59         3        9.866944e-01
        60         3       -1.291816e+00
        61         3       -8.368091e-01
        62         3        2.426448e+00
        63         3       -2.270935e-01
        64         3        4.693901e-01
        65         3       -2.507458e-01
        66         3        1.816010e-01
        67         3        6.155307e-01
        68         3       -6.657077e-02
        69         3        5.882986e-02
        70         3       -7.880354e-01
        71         3        3.638521e-02
        72         3        5.785760e-01
        73         3        4.618320e-01
        74         3        2.145767e-01
        75         3        7.419117e-01
        76         3       -1.383259e+00
        77         3       -7.738929e-01
        78         3       -2.755457e-01
        79         3       -3.349345e-01
        80         3       -1.452986e-01
        81         3        9.261094e-01
        82         3        1.244409e-01
        83         3       -1.818262e-01
        84         3        1.340392e+00
        85         3        9.038083e-01
        86         3       -6.071869e-01
        87         3       -9.940354e-01
        88         3        1.320276e+00
        89         3        1.211742e+00
        90         3        2.040720e-01
        91         3       -9.045931e-01
        92         3        5.540317e-02
        93         3        3.026593e-01
        94         3       -7.399111e-02
        95         3        9.282787e-01
        96         3        8.855866e-01
        97         3       -1.259574e+00
        98         3       -8.441890e-01
        99         3       -2.311262e-01
       100         3       -4.115140e-01
         1         4       -1.162582e+00
         2         4       -3.611083e-01
         3         4        1.222913e+00
         4         4       -8.516947e-01
         5         4       -2.273666e+00
         6         4        1.413629e+00
         7         4        4.258593e-01
         8         4       -1.252931e+00
         9         4       -1.034474e-01
        10         4        3.163057e-01
        11         4       -8.053165e-01
        12         4        3.107569e-01
        13         4       -1.752686e+00
        14         4        1.361554e+00
        15         4        8.850818e-01
        16         4        2.977118e-01
        17         4       -5.200034e-01
        18         4       -4.258862e-01
        19         4        1.737465e+00
        20         4        5.322662e-01
        21         4        1.711030e+00
        22         4        3.747902e-01
        23         4        1.768167e-01
        24         4       -7.726530e-01
        25         4        4.776382e-01
        26         4       -1.429909e-01
        27         4       -8.822758e-01
        28         4       -9.495811e-01
        29         4        5.499756e-02
        30         4        1.710868e-02
        31         4       -1.914153e+00
        32         4        1.417507e+00
        33         4       -5.404231e-01
        34         4       -1.471740e-02
        35         4       -1.134131e+00
        36         4       -4.608893e-01
        37         4       -4.691670e-01
        38         4       -9.620476e-01
        39         4        5.682151e-01
        40         4        5.769819e-01
        41         4        2.239811e-02
        42         4       -8.857325e-01
        43         4        3.576117e-01
        44         4        2.139575e-01
        45         4       -5.769036e-01
        46         4        1.135767e+00
        47         4        1.062974e+00
        48         4       -6.548477e-01
        49         4        7.624897e-01
        50         4       -8.929309e-01
        51         4       -1.207365e+00
        52         4        2.324582e+00
        53         4        9.092200e-02
        54         4        5.637338e-01
        55         4        5.278276e-01
        56         4        1.663880e+00
        57         4       -6.294366e-01
        58         4        3.305557e-01
        59         4        1.322313e+00
        60         4       -6.841907e-01
        61         4       -9.734618e-01
        62         4       -1.066686e+00
        63         4       -7.268459e-01
        64         4       -7.602530e-01
        65         4       -3.861843e-01
        66         4        1.450199e+00
        67         4        4.991443e-01
        68         4       -1.963472e+00
        69         4        6.516431e-01
        70         4        8.928971e-01
        71         4       -3.441097e-02
        72         4        5.163792e-02
        73         4       -1.332619e+00
        74         4       -7.385248e-01
        75         4        1.674319e-02
        76         4        6.174002e-01
        77         4        6.300880e-01
        78         4       -2.775920e+00
        79         4        7.139861e-01
        80         4        1.829489e-01
        81         4       -8.292066e-01
        82         4       -1.363999e+00
        83         4        3.737004e-01
        84         4        4.720966e-01
        85         4        1.316926e-02
        86         4        9.007472e-01
        87         4        8.005566e-01
        88         4        5.702778e-01
        89         4       -4.673184e-01
        90         4        4.788224e-01
        91         4        1.126867e+00
        92         4       -9.313153e-01
        93         4       -6.344631e-01
        94         4        2.053783e+00
        95         4       -1.808727e+00
        96         4        1.097396e+00
        97         4        9.377653e-02
        98         4       -1.319354e+00
        99         4        1.253021e+00
       100         4        3.563673e-01
         1         5        9.875524e-01
         2         5       -8.167889e-01
         3         5        7.581690e-01
         4         5       -2.320944e-01
         5         5       -2.328067e+00
         6         5        1.030871e+00
         7         5       -1.131059e+00
         8         5        3.892012e-01
         9         5        7.109491e-01
        10         5        1.623303e+00
        11         5       -1.326591e+00
        12         5        1.078856e+00
        13         5        1.104112e+00
        14         5       -1.363199e+00
        15         5       -1.777252e+00
        16         5        4.266378e-01
        17         5       -1.222749e+00
        18         5        3.750785e-01
        19         5        2.456628e-01
        20         5       -5.396350e-01
        21         5        2.543735e-01
        22         5       -1.041422e+00
        23         5       -1.584757e+00
        24         5       -3.770825e-02
        25         5       -5.913337e-01
        26         5        1.124491e+00
        27         5        2.189202e+00
        28         5       -1.939001e+00
        29         5        1.844949e+00
        30         5       -9.363809e-01
        31         5        1.857209e+00
        32         5        7.469310e-01
        33         5        1.337620e+00
        34         5       -1.253896e+00
        35         5        5.518282e-01
        36         5       -1.361215e+00
        37         5        1.576091e+00
        38         5        1.531211e+00
        39         5       -7.262066e-01
        40         5        6.219281e-02
        41         5        1.663749e-01
        42         5       -1.290725e+00
        43         5        6.767867e-01
        44         5        3.701765e-02
        45         5       -6.281719e-01
        46         5       -6.874949e-03
        47         5        7.508032e-01
        48         5        1.919724e+00
        49         5       -1.442227e+00
        50         5        2.241002e-01
        51         5        1.233600e-01
        52         5        1.165462e+00
        53         5        1.415615e+00
        54         5       -2.165492e+00
        55         5        9.426706e-01
        56         5       -3.992863e-01
        57         5       -9.571003e-01
        58         5        8.259050e-01
        59         5       -2.403587e-01
        60         5       -2.243834e-01
        61         5       -6.009180e-01
        62         5       -3.643185e-01
        63         5        6.311295e-01
        64         5       -1.230372e-01
        65         5       -2.501730e-01
        66         5        1.746410e+00
        67         5        1.482193e+00
        68         5        3.952321e-01
        69         5       -1.044509e-01
        70         5       -5.105188e-01
        71         5        1.049094e+00
        72         5        1.154853e+00
        73         5       -6.610003e-01
        74         5       -9.689894e-01
        75         5        1.417898e+00
        76         5       -1.053324e+00
        77         5       -5.709994e-01
        78         5        5.443117e-02
        79         5        2.226956e-01
        80         5        1.172432e+00
        81         5        5.067861e-01
        82         5       -1.850551e-01
        83         5        2.426494e-01
        84         5       -6.263463e-01
        85         5        1.193680e-01
        86         5        8.411586e-01
        87         5       -4.294273e-01
        88         5       -6.056826e-01
        89         5        1.134681e+00
        90         5        1.532324e+00
        91         5       -3.721151e-01
        92         5        1.444331e+00
        93         5       -3.624480e-01
        94         5       -3.006034e-02
        95         5        2.010697e-01
        96         5       -9.914345e-01
        97         5        2.533228e-02
        98         5        1.150141e+00
        99         5       -5.844443e-01
       100         5       -5.634317e-01
;

param theta:=
    1       -3.664104e-02
    2        9.067380e-01
    3       -1.935842e-01
    4        1.182021e+00
    5        2.571398e-01
;
param X_true:=
    1       -8.824915e-01
    2       -5.799886e-01
    3        3.302937e+00
    4       -2.043195e+00
    5       -3.929356e+00
    6        3.129675e+00
    7        1.008098e-02
    8       -2.060310e+00
    9       -7.789213e-01
   10        7.615488e-01
   11       -1.369882e+00
   12        2.053850e+00
   13       -2.974918e+00
   14        2.365624e+00
   15       -2.427502e-01
   16        5.625171e-01
   17       -2.377604e+00
   18        4.854528e-01
   19        6.720655e-01
   20        6.212038e-02
   21        2.870341e+00
   22        6.101161e-02
   23        7.223915e-02
   24       -1.141389e+00
   25        1.877099e+00
   26       -2.041433e-01
   27       -1.573391e+00
   28       -1.510704e+00
   29       -6.519622e-01
   30        8.077424e-01
   31       -2.578045e+00
   32        8.794181e-01
   33        4.083372e-01
   34        1.498533e+00
   35       -1.149563e+00
   36        9.023149e-01
   37       -1.065085e+00
   38       -4.552046e-01
   39       -1.719426e-01
   40        5.885585e-01
   41       -7.172315e-01
   42       -1.547787e+00
   43       -5.593091e-01
   44       -4.725062e-01
   45       -6.230091e-01
   46        1.707204e+00
   47        2.743778e+00
   48       -1.732422e+00
   49        1.553186e+00
   50       -1.793936e+00
   51       -3.127050e+00
   52        2.237848e+00
   53       -1.019332e-01
   54        2.175624e+00
   55        1.577661e+00
   56        2.980907e+00
   57       -1.075337e+00
   58        1.046645e+00
   59        5.223060e-01
   60       -3.697469e-01
   61       -2.464781e+00
   62       -2.370265e+00
   63       -4.729951e-01
   64       -1.361683e+00
   65       -8.743016e-01
   66        2.558407e+00
   67        1.747987e-02
   68       -2.323812e+00
   69       -8.556749e-01
   70        3.298507e-01
   71        1.945056e-01
   72       -4.166589e-01
   73       -1.579261e+00
   74       -1.041644e+00
   75       -8.075613e-01
   76        2.751520e+00
   77        2.292868e+00
   78       -3.675268e+00
   79       -1.147748e-01
   80        9.701663e-01
   81       -1.841884e+00
   82       -2.292971e+00
   83        1.286501e+00
   84        3.086585e-01
   85        2.725598e-01
   86        1.500141e+00
   87        1.514035e+00
   88       -1.626694e+00
   89       -1.184542e+00
   90        2.117803e+00
   91        3.111192e+00
   92        1.617942e+00
   93       -4.652873e-01
   94        1.116196e+00
   95       -5.492746e-01
   96        4.621344e-01
   97       -5.634752e-01
   98       -1.538047e+00
   99        1.255207e+00
  100       -1.237839e+00
;
param X:=
    1        8.197007e-01
    2        5.256704e-01
    3        1.222081e+00
    4        1.804811e-02
    5       -6.616407e-01
    6       -6.840971e-02
    7        1.889722e-01
    8        1.827492e-01
    9       -1.306467e-01
   10       -9.396732e-02
   11        1.455703e+00
   12        2.053850e+00
   13        1.632937e+00
   14        1.465757e-01
   15       -2.427502e-01
   16       -9.620545e-01
   17       -3.151063e-01
   18        1.603853e-01
   19        4.776724e-01
   20       -3.994475e-01
   21       -1.963516e+00
   22       -6.394249e-01
   23        1.932502e-01
   24       -1.357764e+00
   25       -1.242429e+00
   26       -2.600868e-01
   27       -5.340460e-01
   28        8.920868e-01
   29       -1.359637e+00
   30       -1.048614e+00
   31       -6.872202e-02
   32        8.692428e-01
   33        6.791925e-02
   34        2.415693e+00
   35        1.317841e+00
   36       -1.493230e+00
   37       -7.303156e-03
   38        1.652467e-01
   39       -9.722019e-02
   40       -1.725879e+00
   41        9.170839e-01
   42        1.714053e-01
   43        7.372039e-01
   44       -5.562875e-02
   45        1.631100e+00
   46        2.922805e-01
   47        1.377801e-01
   48        3.331488e-02
   49       -7.204014e-01
   50        6.606703e-01
   51       -6.379319e-02
   52        2.084590e+00
   53       -1.008433e+00
   54        1.182703e+00
   55       -1.318751e+00
   56        8.009420e-01
   57       -3.877783e-01
   58        1.046645e+00
   59        2.061231e-01
   60       -3.697469e-01
   61       -8.290132e-01
   62       -2.370265e+00
   63        2.095056e+00
   64        2.595055e+00
   65       -9.415744e-02
   66        1.400052e-01
   67       -1.662762e+00
   68        1.142617e+00
   69       -8.060959e-01
   70       -1.146129e+00
   71        1.945056e-01
   72       -4.166589e-01
   73       -9.703323e-01
   74       -4.047584e-02
   75        3.225970e-01
   76       -4.244964e-01
   77        1.727211e+00
   78        3.443647e-01
   79       -1.191974e+00
   80       -4.626802e-01
   81        3.023876e-01
   82       -2.292971e+00
   83        1.127685e+00
   84        3.086585e-01
   85       -1.368072e+00
   86       -1.273910e+00
   87       -7.067300e-01
   88       -3.102653e-01
   89        8.105766e-01
   90        8.452544e-01
   91        5.568752e-01
   92        1.617942e+00
   93       -6.133240e-01
   94        1.481328e+00
   95        3.849740e-01
   96        1.494937e-01
   97       -1.918458e+00
   98       -7.990248e-01
   99       -2.259048e+00
  100       -1.895665e+00
;
param outliervec:=
    1    1
    2    1
    3    1
    4    1
    5    1
    6    1
    7    1
    8    1
    9    1
   10    1
   11    1
   12    0
   13    1
   14    1
   15    0
   16    1
   17    1
   18    1
   19    1
   20    1
   21    1
   22    1
   23    1
   24    1
   25    1
   26    1
   27    1
   28    1
   29    1
   30    1
   31    1
   32    1
   33    1
   34    1
   35    1
   36    1
   37    1
   38    1
   39    1
   40    1
   41    1
   42    1
   43    1
   44    1
   45    1
   46    1
   47    1
   48    1
   49    1
   50    1
   51    1
   52    1
   53    1
   54    1
   55    1
   56    1
   57    1
   58    0
   59    1
   60    0
   61    1
   62    0
   63    1
   64    1
   65    1
   66    1
   67    1
   68    1
   69    1
   70    1
   71    0
   72    0
   73    1
   74    1
   75    1
   76    1
   77    1
   78    1
   79    1
   80    1
   81    1
   82    0
   83    1
   84    0
   85    1
   86    1
   87    1
   88    1
   89    1
   90    1
   91    1
   92    0
   93    1
   94    1
   95    1
   96    1
   97    1
   98    1
   99    1
  100    1
;